c
c start with comments
c
p cnf 18 14
12 8 9 0
-13 5 -2 16 0
12 21 -15 0
-10 12 -6 0
5 -15 -12 -20 0
6 20 0
8 -2 11 0
13 -20 -21 3 19 0
-5 -3 0
-18 8 -6 5 0
2 5 19 0
-18 21 11 19 -10 0
17 18 0
-8 -7 -13 -15 0